100
128
40
64
19
59
31
47
51
52
22
45
33
25
61
45
20
20
12
39
17
4
61
31
2
31
48
30
57
50
32
26
36
11
29
5
53
59
15
47
15
40
16
18
32
14
43
17
33
53
42
14
55
64
25
21
43
11
11
29
32
37
14
16
33
55
18
25
54
4
20
27
30
26
2
23
22
13
23
13
2
40
3
63
25
14
3
12
32
11
43
25
48
15
32
3
1
22
30
40
58
2